* Problem:
* Class:      LP
* Rows:       166
* Columns:    162
* Non-zeros:  1215
* Format:     Free MPS
*
NAME        BOEING2
ROWS
 N R0000000
 G REVENUES
 G ACOCOSTS
 L FUELAVAL
 G SYSTDEPT
 G ACMILES
 G ASMILES
 G PASSNGRS
 G RPMILES
 G LFRPMASM
 G ATONMILE
 G RTONMILE
 G LFTNMILE
 E r_13
 E r_14
 E r_15
 E r_16
 G LF1003S1
 G LF1003B1
 G LF1003C1
 G LF1005S1
 G LF1005B1
 G LF1005C1
 G LF1011S1
 G LF1011S2
 G LF1011B1
 G LF1011B2
 G LF1011C1
 G LF1011C2
 G LF1013S1
 G LF1013S2
 G LF1013B1
 G LF1013B2
 G LF1013C1
 G LF1013C2
 G LF1015S1
 G LF1015B1
 G LF1015C1
 G LF1017S1
 G LF1017B1
 G LF1017C1
 G LF1019S1
 G LF1019S2
 G LF1019B1
 G LF1019B2
 G LF1019C1
 G LF1019C2
 G LF1021S1
 G LF1021B1
 G LF1021C1
 G LF1002S1
 G LF1002B1
 G LF1002C1
 G LF1004S1
 G LF1004B1
 G LF1004C1
 G LF1006S1
 G LF1006S2
 G LF1006B1
 G LF1006B2
 G LF1006C1
 G LF1006C2
 G LF1008S1
 G LF1008S2
 G LF1008B1
 G LF1008B2
 G LF1008C1
 G LF1008C2
 G LF1010S1
 G LF1010S2
 G LF1010S3
 G LF1010B1
 G LF1010B2
 G LF1010B3
 G LF1010C1
 G LF1010C2
 G LF1010C3
 G LF1012S1
 G LF1012B1
 G LF1012C1
 G LF1014S1
 G LF1014S2
 G LF1014B1
 G LF1014B2
 G LF1014C1
 G LF1014C2
 G LF1100S1
 G LF1100S2
 G LF1100S3
 G LF1100S4
 G LF1100S5
 G LF1100B1
 G LF1100B2
 G LF1100B3
 G LF1100B4
 G LF1100B5
 G LF1100C1
 G LF1100C2
 G LF1100C3
 G LF1100C4
 G LF1100C5
 G LF1102S1
 G LF1102S2
 G LF1102S3
 G LF1102S4
 G LF1102B1
 G LF1102B2
 G LF1102B3
 G LF1102B4
 G LF1102C1
 G LF1102C2
 G LF1102C3
 G LF1102C4
 G LF1200S1
 G LF1200B1
 G LF1200C1
 G LF1201S1
 G LF1201B1
 G LF1201C1
 G NOPTCLE0
 G CONTBOS1
 G CONTBOS2
 G CONTBOS3
 G CONTBOS4
 G CONTORD1
 G CONTORD2
 G CONTORD3
 G CONTORD4
 G CONTLGA2
 G CONTLGA4
 G CONTCLE1
 G CONTCLE2
 G CONTCLE3
 G CONTCLE4
 E DMBOSORD
 E DMBOSLGA
 E DMBOSCLE
 E DMORDBOS
 E DMORDLGA
 E DMORDCLE
 E DMLGABOS
 E DMLGAORD
 E DMLGACLE
 E DMCLEBOS
 E DMCLEORD
 E DMCLELGA
 G MSBOSORD
 G MSBOSLGA
 G MSBOSCLE
 G MSORDBOS
 G MSORDLGA
 G MSORDCLE
 G MSLGABOS
 G MSLGAORD
 G MSLGACLE
 G MSCLEBOS
 G MSCLEORD
 G MSCLELGA
 E DCBOSORD
 E DCBOSCLE
 E DCORDBOS
 E DCORDLGA
 E DCLGAORD
 E DCLGACLE
 E DCCLELGA
 G MCORDBOS
 G MCLGAORD
COLUMNS
 PBOSORD0 R0000000 -0.075 REVENUES 0.075
 PBOSORD0 PASSNGRS 1 RPMILES 0.86441
 PBOSORD0 LFRPMASM -0.86441 LF1003S1 -1
 PBOSORD0 DMBOSORD 1
 PBOSORD1 R0000000 -0.075 REVENUES 0.075
 PBOSORD1 PASSNGRS 1 RPMILES 0.87605
 PBOSORD1 LFRPMASM -0.87605 LF1011S1 -1
 PBOSORD1 LF1011S2 -1 DMBOSORD 1
 PBOSORD2 R0000000 -0.075 REVENUES 0.075
 PBOSORD2 PASSNGRS 1 RPMILES 0.91637
 PBOSORD2 LFRPMASM -0.91637 LF1013S1 -1
 PBOSORD2 LF1013S2 -1 DMBOSORD 1
 PBOSORD3 R0000000 -0.075 REVENUES 0.075
 PBOSORD3 PASSNGRS 1 RPMILES 0.91722
 PBOSORD3 LFRPMASM -0.91722 LF1100S1 -1
 PBOSORD3 LF1100S2 -1 LF1100S3 -1
 PBOSORD3 DMBOSORD 1
 PBOSORD4 R0000000 -0.075 REVENUES 0.075
 PBOSORD4 PASSNGRS 1 RPMILES 0.87605
 PBOSORD4 LFRPMASM -0.87605 LF1102S1 -1
 PBOSORD4 LF1102S2 -1 DMBOSORD 1
 PBOSLGA0 R0000000 -0.027 REVENUES 0.027
 PBOSLGA0 PASSNGRS 1 RPMILES 0.18557
 PBOSLGA0 LFRPMASM -0.18557 LF1013S1 -1
 PBOSLGA0 DMBOSLGA 1
 PBOSLGA1 R0000000 -0.027 REVENUES 0.027
 PBOSLGA1 PASSNGRS 1 RPMILES 0.18557
 PBOSLGA1 LFRPMASM -0.18557 LF1100S1 -1
 PBOSLGA1 DMBOSLGA 1
 PBOSLGA2 R0000000 -0.027 REVENUES 0.027
 PBOSLGA2 PASSNGRS 1 RPMILES 1.60685
 PBOSLGA2 LFRPMASM -1.60685 LF1102S1 -1
 PBOSLGA2 LF1102S2 -1 LF1102S3 -1
 PBOSLGA2 DMBOSLGA 1
 PBOSLGA3 R0000000 -0.027 REVENUES 0.027
 PBOSLGA3 PASSNGRS 1 RPMILES 0.18557
 PBOSLGA3 LFRPMASM -0.18557 LF1200S1 -1
 PBOSLGA3 DMBOSLGA 1
 PBOSCLE0 R0000000 -0.053 REVENUES 0.053
 PBOSCLE0 PASSNGRS 1 RPMILES 0.56156
 PBOSCLE0 LFRPMASM -0.56156 LF1005S1 -1
 PBOSCLE0 DMBOSCLE 1
 PBOSCLE1 R0000000 -0.053 REVENUES 0.053
 PBOSCLE1 PASSNGRS 1 RPMILES 0.56156
 PBOSCLE1 LFRPMASM -0.56156 LF1011S1 -1
 PBOSCLE1 DMBOSCLE 1
 PBOSCLE2 R0000000 -0.053 REVENUES 0.053
 PBOSCLE2 PASSNGRS 1 RPMILES 0.60273
 PBOSCLE2 LFRPMASM -0.60273 LF1100S1 -1
 PBOSCLE2 LF1100S2 -1 DMBOSCLE 1
 PBOSCLE3 R0000000 -0.053 REVENUES 0.053
 PBOSCLE3 PASSNGRS 1 RPMILES 0.56156
 PBOSCLE3 LFRPMASM -0.56156 LF1102S1 -1
 PBOSCLE3 DMBOSCLE 1
 PORDBOS0 R0000000 -0.075 REVENUES 0.075
 PORDBOS0 PASSNGRS 1 RPMILES 0.87605
 PORDBOS0 LFRPMASM -0.87605 LF1006S1 -1
 PORDBOS0 LF1006S2 -1 DMORDBOS 1
 PORDBOS1 R0000000 -0.075 REVENUES 0.075
 PORDBOS1 PASSNGRS 1 RPMILES 0.91637
 PORDBOS1 LFRPMASM -0.91637 LF1008S1 -1
 PORDBOS1 LF1008S2 -1 DMORDBOS 1
 PORDBOS2 R0000000 -0.075 REVENUES 0.075
 PORDBOS2 PASSNGRS 1 RPMILES 0.91722
 PORDBOS2 LFRPMASM -0.91722 LF1010S1 -1
 PORDBOS2 LF1010S2 -1 LF1010S3 -1
 PORDBOS2 DMORDBOS 1
 PORDBOS3 R0000000 -0.075 REVENUES 0.075
 PORDBOS3 PASSNGRS 1 RPMILES 0.87605
 PORDBOS3 LFRPMASM -0.87605 LF1100S4 -1
 PORDBOS3 LF1100S5 -1 DMORDBOS 1
 PORDBOS4 R0000000 -0.075 REVENUES 0.075
 PORDBOS4 PASSNGRS 1 RPMILES 0.91637
 PORDBOS4 LFRPMASM -0.91637 LF1102S3 -1
 PORDBOS4 LF1102S4 -1 DMORDBOS 1
 PORDLGA0 R0000000 -0.068 REVENUES 0.068
 PORDLGA0 PASSNGRS 1 RPMILES 0.7308
 PORDLGA0 LFRPMASM -0.7308 LF1004S1 -1
 PORDLGA0 DMORDLGA 1
 PORDLGA1 R0000000 -0.068 REVENUES 0.068
 PORDLGA1 PASSNGRS 1 RPMILES 0.7308
 PORDLGA1 LFRPMASM -0.7308 LF1008S1 -1
 PORDLGA1 DMORDLGA 1
 PORDLGA2 R0000000 -0.068 REVENUES 0.068
 PORDLGA2 PASSNGRS 1 RPMILES 0.73165
 PORDLGA2 LFRPMASM -0.73165 LF1010S1 -1
 PORDLGA2 LF1010S2 -1 DMORDLGA 1
 PORDLGA3 R0000000 -0.068 REVENUES 0.068
 PORDLGA3 PASSNGRS 1 RPMILES 0.7308
 PORDLGA3 LFRPMASM -0.7308 LF1102S3 -1
 PORDLGA3 DMORDLGA 1
 PORDCLE0 R0000000 -0.035 REVENUES 0.035
 PORDCLE0 PASSNGRS 1 RPMILES 0.3145
 PORDCLE0 LFRPMASM -0.3145 LF1002S1 -1
 PORDCLE0 DMORDCLE 1
 PORDCLE1 R0000000 -0.035 REVENUES 0.035
 PORDCLE1 PASSNGRS 1 RPMILES 0.3145
 PORDCLE1 LFRPMASM -0.3145 LF1006S1 -1
 PORDCLE1 DMORDCLE 1
 PORDCLE2 R0000000 -0.035 REVENUES 0.035
 PORDCLE2 PASSNGRS 1 RPMILES 0.3145
 PORDCLE2 LFRPMASM -0.3145 LF1010S1 -1
 PORDCLE2 DMORDCLE 1
 PORDCLE3 R0000000 -0.035 REVENUES 0.035
 PORDCLE3 PASSNGRS 1 RPMILES 0.3145
 PORDCLE3 LFRPMASM -0.3145 LF1100S4 -1
 PORDCLE3 DMORDCLE 1
 PLGABOS0 R0000000 -0.027 REVENUES 0.027
 PLGABOS0 PASSNGRS 1 RPMILES 0.18557
 PLGABOS0 LFRPMASM -0.18557 LF1008S2 -1
 PLGABOS0 DMLGABOS 1
 PLGABOS1 R0000000 -0.027 REVENUES 0.027
 PLGABOS1 PASSNGRS 1 RPMILES 0.18557
 PLGABOS1 LFRPMASM -0.18557 LF1010S3 -1
 PLGABOS1 DMLGABOS 1
 PLGABOS2 R0000000 -0.027 REVENUES 0.027
 PLGABOS2 PASSNGRS 1 RPMILES 0.18557
 PLGABOS2 LFRPMASM -0.18557 LF1014S2 -1
 PLGABOS2 DMLGABOS 1
 PLGABOS3 R0000000 -0.027 REVENUES 0.027
 PLGABOS3 PASSNGRS 1 RPMILES 1.6077
 PLGABOS3 LFRPMASM -1.6077 LF1100S2 -1
 PLGABOS3 LF1100S3 -1 LF1100S4 -1
 PLGABOS3 LF1100S5 -1 DMLGABOS 1
 PLGABOS4 R0000000 -0.027 REVENUES 0.027
 PLGABOS4 PASSNGRS 1 RPMILES 0.18557
 PLGABOS4 LFRPMASM -0.18557 LF1102S4 -1
 PLGABOS4 DMLGABOS 1
 PLGABOS5 R0000000 -0.027 REVENUES 0.027
 PLGABOS5 PASSNGRS 1 RPMILES 0.18557
 PLGABOS5 LFRPMASM -0.18557 LF1201S1 -1
 PLGABOS5 DMLGABOS 1
 PLGAORD0 R0000000 -0.068 REVENUES 0.068
 PLGAORD0 PASSNGRS 1 RPMILES 0.7308
 PLGAORD0 LFRPMASM -0.7308 LF1013S2 -1
 PLGAORD0 DMLGAORD 1
 PLGAORD1 R0000000 -0.068 REVENUES 0.068
 PLGAORD1 PASSNGRS 1 RPMILES 0.7308
 PLGAORD1 LFRPMASM -0.7308 LF1017S1 -1
 PLGAORD1 DMLGAORD 1
 PLGAORD2 R0000000 -0.068 REVENUES 0.068
 PLGAORD2 PASSNGRS 1 RPMILES 0.73165
 PLGAORD2 LFRPMASM -0.73165 LF1019S1 -1
 PLGAORD2 LF1019S2 -1 DMLGAORD 1
 PLGAORD3 R0000000 -0.068 REVENUES 0.068
 PLGAORD3 PASSNGRS 1 RPMILES 0.73165
 PLGAORD3 LFRPMASM -0.73165 LF1100S2 -1
 PLGAORD3 LF1100S3 -1 DMLGAORD 1
 PLGACLE0 R0000000 -0.037 REVENUES 0.037
 PLGACLE0 PASSNGRS 1 RPMILES 0.41715
 PLGACLE0 LFRPMASM -0.41715 LF1015S1 -1
 PLGACLE0 DMLGACLE 1
 PLGACLE1 R0000000 -0.037 REVENUES 0.037
 PLGACLE1 PASSNGRS 1 RPMILES 0.41715
 PLGACLE1 LFRPMASM -0.41715 LF1019S1 -1
 PLGACLE1 DMLGACLE 1
 PLGACLE2 R0000000 -0.037 REVENUES 0.037
 PLGACLE2 PASSNGRS 1 RPMILES 0.41715
 PLGACLE2 LFRPMASM -0.41715 LF1100S2 -1
 PLGACLE2 DMLGACLE 1
 PCLEBOS0 R0000000 -0.053 REVENUES 0.053
 PCLEBOS0 PASSNGRS 1 RPMILES 0.56156
 PCLEBOS0 LFRPMASM -0.56156 LF1006S2 -1
 PCLEBOS0 DMCLEBOS 1
 PCLEBOS1 R0000000 -0.053 REVENUES 0.053
 PCLEBOS1 PASSNGRS 1 RPMILES 0.60273
 PCLEBOS1 LFRPMASM -0.60273 LF1010S2 -1
 PCLEBOS1 LF1010S3 -1 DMCLEBOS 1
 PCLEBOS2 R0000000 -0.053 REVENUES 0.053
 PCLEBOS2 PASSNGRS 1 RPMILES 0.60273
 PCLEBOS2 LFRPMASM -0.60273 LF1014S1 -1
 PCLEBOS2 LF1014S2 -1 DMCLEBOS 1
 PCLEBOS3 R0000000 -0.053 REVENUES 0.053
 PCLEBOS3 PASSNGRS 1 RPMILES 0.56156
 PCLEBOS3 LFRPMASM -0.56156 LF1100S5 -1
 PCLEBOS3 DMCLEBOS 1
 PCLEBOS4 R0000000 -0.053 REVENUES 0.053
 PCLEBOS4 PASSNGRS 1 RPMILES 1.23087
 PCLEBOS4 LFRPMASM -1.23087 LF1102S2 -1
 PCLEBOS4 LF1102S3 -1 LF1102S4 -1
 PCLEBOS4 DMCLEBOS 1
 PCLEORD0 R0000000 -0.035 REVENUES 0.035
 PCLEORD0 PASSNGRS 1 RPMILES 0.3145
 PCLEORD0 LFRPMASM -0.3145 LF1011S2 -1
 PCLEORD0 DMCLEORD 1
 PCLEORD1 R0000000 -0.035 REVENUES 0.035
 PCLEORD1 PASSNGRS 1 RPMILES 0.3145
 PCLEORD1 LFRPMASM -0.3145 LF1019S2 -1
 PCLEORD1 DMCLEORD 1
 PCLEORD2 R0000000 -0.035 REVENUES 0.035
 PCLEORD2 PASSNGRS 1 RPMILES 0.3145
 PCLEORD2 LFRPMASM -0.3145 LF1021S1 -1
 PCLEORD2 DMCLEORD 1
 PCLEORD3 R0000000 -0.035 REVENUES 0.035
 PCLEORD3 PASSNGRS 1 RPMILES 0.3145
 PCLEORD3 LFRPMASM -0.3145 LF1100S3 -1
 PCLEORD3 DMCLEORD 1
 PCLEORD4 R0000000 -0.035 REVENUES 0.035
 PCLEORD4 PASSNGRS 1 RPMILES 0.3145
 PCLEORD4 LFRPMASM -0.3145 LF1102S2 -1
 PCLEORD4 DMCLEORD 1
 PCLELGA0 R0000000 -0.037 REVENUES 0.037
 PCLELGA0 PASSNGRS 1 RPMILES 0.41715
 PCLELGA0 LFRPMASM -0.41715 LF1010S2 -1
 PCLELGA0 DMCLELGA 1
 PCLELGA1 R0000000 -0.037 REVENUES 0.037
 PCLELGA1 PASSNGRS 1 RPMILES 0.41715
 PCLELGA1 LFRPMASM -0.41715 LF1012S1 -1
 PCLELGA1 DMCLELGA 1
 PCLELGA2 R0000000 -0.037 REVENUES 0.037
 PCLELGA2 PASSNGRS 1 RPMILES 0.41715
 PCLELGA2 LFRPMASM -0.41715 LF1014S1 -1
 PCLELGA2 DMCLELGA 1
 PCLELGA3 R0000000 -0.037 REVENUES 0.037
 PCLELGA3 PASSNGRS 1 RPMILES 1.0453
 PCLELGA3 LFRPMASM -1.0453 LF1102S2 -1
 PCLELGA3 LF1102S3 -1 DMCLELGA 1
 BBOSORD0 R0000000 -0.75 REVENUES 0.75
 BBOSORD0 RTONMILE 0.86441 LFTNMILE -0.86441
 BBOSORD0 LF1003B1 -1 DCBOSORD 1
 BBOSORD1 R0000000 -0.75 REVENUES 0.75
 BBOSORD1 RTONMILE 0.87605 LFTNMILE -0.87605
 BBOSORD1 LF1011B1 -1 LF1011B2 -1
 BBOSORD1 DCBOSORD 1
 BBOSCLE0 R0000000 -0.53 REVENUES 0.53
 BBOSCLE0 RTONMILE 0.56156 LFTNMILE -0.56156
 BBOSCLE0 LF1005B1 -1 DCBOSCLE 1
 BBOSCLE1 R0000000 -0.53 REVENUES 0.53
 BBOSCLE1 RTONMILE 0.56156 LFTNMILE -0.56156
 BBOSCLE1 LF1011B1 -1 DCBOSCLE 1
 BORDBOS0 R0000000 -0.75 REVENUES 0.75
 BORDBOS0 RTONMILE 0.87605 LFTNMILE -0.87605
 BORDBOS0 LF1006B1 -1 LF1006B2 -1
 BORDBOS0 DCORDBOS 1
 CBOSORD0 R0000000 -0.75 REVENUES 0.75
 CBOSORD0 RTONMILE 0.86441 LFTNMILE -0.86441
 CBOSORD0 LF1003C1 -1 DCBOSORD 1
 CBOSORD1 R0000000 -0.75 REVENUES 0.75
 CBOSORD1 RTONMILE 0.87605 LFTNMILE -0.87605
 CBOSORD1 LF1011C1 -1 LF1011C2 -1
 CBOSORD1 DCBOSORD 1
 CBOSORD2 R0000000 -0.75 REVENUES 0.75
 CBOSORD2 RTONMILE 0.91637 LFTNMILE -0.91637
 CBOSORD2 LF1013C1 -1 LF1013C2 -1
 CBOSORD2 DCBOSORD 1
 CBOSORD3 R0000000 -0.75 REVENUES 0.75
 CBOSORD3 RTONMILE 0.91722 LFTNMILE -0.91722
 CBOSORD3 LF1100C1 -1 LF1100C2 -1
 CBOSORD3 LF1100C3 -1 DCBOSORD 1
 CBOSORD4 R0000000 -0.75 REVENUES 0.75
 CBOSORD4 RTONMILE 0.87605 LFTNMILE -0.87605
 CBOSORD4 LF1102C1 -1 LF1102C2 -1
 CBOSORD4 DCBOSORD 1
 CBOSCLE0 R0000000 -0.53 REVENUES 0.53
 CBOSCLE0 RTONMILE 0.56156 LFTNMILE -0.56156
 CBOSCLE0 LF1005C1 -1 DCBOSCLE 1
 CBOSCLE1 R0000000 -0.53 REVENUES 0.53
 CBOSCLE1 RTONMILE 0.56156 LFTNMILE -0.56156
 CBOSCLE1 LF1011C1 -1 DCBOSCLE 1
 CBOSCLE2 R0000000 -0.53 REVENUES 0.53
 CBOSCLE2 RTONMILE 0.60273 LFTNMILE -0.60273
 CBOSCLE2 LF1100C1 -1 LF1100C2 -1
 CBOSCLE2 DCBOSCLE 1
 CBOSCLE3 R0000000 -0.53 REVENUES 0.53
 CBOSCLE3 RTONMILE 0.56156 LFTNMILE -0.56156
 CBOSCLE3 LF1102C1 -1 DCBOSCLE 1
 CORDBOS0 R0000000 -0.75 REVENUES 0.75
 CORDBOS0 RTONMILE 0.87605 LFTNMILE -0.87605
 CORDBOS0 LF1006C1 -1 LF1006C2 -1
 CORDBOS0 DCORDBOS 1
 CORDBOS1 R0000000 -0.75 REVENUES 0.75
 CORDBOS1 RTONMILE 0.91637 LFTNMILE -0.91637
 CORDBOS1 LF1008C1 -1 LF1008C2 -1
 CORDBOS1 DCORDBOS 1
 CORDBOS2 R0000000 -0.75 REVENUES 0.75
 CORDBOS2 RTONMILE 0.91722 LFTNMILE -0.91722
 CORDBOS2 LF1010C1 -1 LF1010C2 -1
 CORDBOS2 LF1010C3 -1 DCORDBOS 1
 CORDBOS3 R0000000 -0.75 REVENUES 0.75
 CORDBOS3 RTONMILE 0.87605 LFTNMILE -0.87605
 CORDBOS3 LF1100C4 -1 LF1100C5 -1
 CORDBOS3 DCORDBOS 1
 CORDBOS4 R0000000 -0.75 REVENUES 0.75
 CORDBOS4 RTONMILE 0.91637 LFTNMILE -0.91637
 CORDBOS4 LF1102C3 -1 LF1102C4 -1
 CORDBOS4 DCORDBOS 1
 CORDLGA0 R0000000 -0.68 REVENUES 0.68
 CORDLGA0 RTONMILE 0.7308 LFTNMILE -0.7308
 CORDLGA0 LF1004C1 -1 DCORDLGA 1
 CORDLGA1 R0000000 -0.68 REVENUES 0.68
 CORDLGA1 RTONMILE 0.7308 LFTNMILE -0.7308
 CORDLGA1 LF1008C1 -1 DCORDLGA 1
 CORDLGA2 R0000000 -0.68 REVENUES 0.68
 CORDLGA2 RTONMILE 0.73165 LFTNMILE -0.73165
 CORDLGA2 LF1010C1 -1 LF1010C2 -1
 CORDLGA2 DCORDLGA 1
 CORDLGA3 R0000000 -0.68 REVENUES 0.68
 CORDLGA3 RTONMILE 0.7308 LFTNMILE -0.7308
 CORDLGA3 LF1102C3 -1 DCORDLGA 1
 CLGAORD0 R0000000 -0.68 REVENUES 0.68
 CLGAORD0 RTONMILE 0.7308 LFTNMILE -0.7308
 CLGAORD0 LF1013C2 -1 DCLGAORD 1
 CLGAORD1 R0000000 -0.68 REVENUES 0.68
 CLGAORD1 RTONMILE 0.7308 LFTNMILE -0.7308
 CLGAORD1 LF1017C1 -1 DCLGAORD 1
 CLGAORD2 R0000000 -0.68 REVENUES 0.68
 CLGAORD2 RTONMILE 0.73165 LFTNMILE -0.73165
 CLGAORD2 LF1019C1 -1 LF1019C2 -1
 CLGAORD2 DCLGAORD 1
 CLGAORD3 R0000000 -0.68 REVENUES 0.68
 CLGAORD3 RTONMILE 0.73165 LFTNMILE -0.73165
 CLGAORD3 LF1100C2 -1 LF1100C3 -1
 CLGAORD3 DCLGAORD 1
 CLGACLE0 R0000000 -0.37 REVENUES 0.37
 CLGACLE0 RTONMILE 0.41715 LFTNMILE -0.41715
 CLGACLE0 LF1015C1 -1 DCLGACLE 1
 CLGACLE1 R0000000 -0.37 REVENUES 0.37
 CLGACLE1 RTONMILE 0.41715 LFTNMILE -0.41715
 CLGACLE1 LF1019C1 -1 DCLGACLE 1
 CLGACLE2 R0000000 -0.37 REVENUES 0.37
 CLGACLE2 RTONMILE 0.41715 LFTNMILE -0.41715
 CLGACLE2 LF1100C2 -1 DCLGACLE 1
 CCLELGA0 R0000000 -0.37 REVENUES 0.37
 CCLELGA0 RTONMILE 0.41715 LFTNMILE -0.41715
 CCLELGA0 LF1010C2 -1 DCCLELGA 1
 CCLELGA1 R0000000 -0.37 REVENUES 0.37
 CCLELGA1 RTONMILE 0.41715 LFTNMILE -0.41715
 CCLELGA1 LF1012C1 -1 DCCLELGA 1
 CCLELGA2 R0000000 -0.37 REVENUES 0.37
 CCLELGA2 RTONMILE 0.41715 LFTNMILE -0.41715
 CCLELGA2 LF1014C1 -1 DCCLELGA 1
 CCLELGA3 R0000000 -0.37 REVENUES 0.37
 CCLELGA3 RTONMILE 1.0453 LFTNMILE -1.0453
 CCLELGA3 LF1102C2 -1 LF1102C3 -1
 CCLELGA3 DCCLELGA 1
 GRDTIMO1 R0000000 0.65 ACOCOSTS 0.65
 GRDTIMO1 r_13 1
 GRDTIMN1 R0000000 -0.05 ACOCOSTS -0.05
 GRDTIMN1 r_13 1
 GRDTIMO2 R0000000 0.275 ACOCOSTS 0.275
 GRDTIMO2 r_14 1
 GRDTIMN2 R0000000 -0.02889 ACOCOSTS -0.02889
 GRDTIMN2 r_14 1
 GRDTIMN3 R0000000 -0.03611 ACOCOSTS -0.03611
 GRDTIMN3 r_15 1
 GRDTIMN4 R0000000 -0.01333 ACOCOSTS -0.01333
 GRDTIMN4 r_16 1
 N1003AC1 R0000000 0.01 ACOCOSTS 0.01
 N1003AC1 FUELAVAL 7.98429 SYSTDEPT 1
 N1003AC1 ACMILES 0.86441 ASMILES 351.81396
 N1003AC1 LFRPMASM 211.088376 ATONMILE 25.93224
 N1003AC1 LFTNMILE 12.96612 r_13 2.32729
 N1003AC1 LF1003S1 305 LF1003B1 12
 N1003AC1 CONTBOS1 1 CONTORD1 -1
 N1003AC1 MSBOSORD 1
 N1003AC2 R0000000 0.02 ACOCOSTS 0.02
 N1003AC2 FUELAVAL 2.51914 SYSTDEPT 1
 N1003AC2 ACMILES 0.86441 ASMILES 113.23743
 N1003AC2 LFRPMASM 67.942458 r_14 2.10966
 N1003AC2 LF1003S1 98 CONTBOS2 1
 N1003AC2 CONTORD2 -1 MSBOSORD 1
 N1003AC3 R0000000 0.03 ACOCOSTS 0.03
 N1003AC3 FUELAVAL 3.15178 SYSTDEPT 1
 N1003AC3 ACMILES 0.86441 ATONMILE 34.57631
 N1003AC3 LFTNMILE 17.288155 r_15 2.10966
 N1003AC3 LF1003C1 30 CONTBOS3 1
 N1003AC3 CONTORD3 -1
 N1003AC4 R0000000 0.04 ACOCOSTS 0.04
 N1003AC4 FUELAVAL 1.99337 SYSTDEPT 1
 N1003AC4 ACMILES 0.86441 ATONMILE 12.96612
 N1003AC4 LFTNMILE 6.48306 r_16 2.10966
 N1003AC4 LF1003C1 11.25 CONTBOS4 1
 N1003AC4 CONTORD4 -1
 N1005AC1 R0000000 4.04337 ACOCOSTS 4.04337
 N1005AC1 FUELAVAL 5.83404 SYSTDEPT 1
 N1005AC1 ACMILES 0.56156 ASMILES 228.55299
 N1005AC1 LFRPMASM 137.131794 ATONMILE 16.84665
 N1005AC1 LFTNMILE 8.423325 r_13 1000
 N1005AC1 LF1005S1 305 LF1005B1 12
 N1005AC1 NOPTCLE0 1 CONTBOS1 1
 N1005AC1 CONTCLE1 -1 MSBOSCLE 1
 N1005AC2 R0000000 1.60964 ACOCOSTS 1.60964
 N1005AC2 FUELAVAL 1.82258 SYSTDEPT 1
 N1005AC2 ACMILES 0.56156 ASMILES 73.56374
 N1005AC2 LFRPMASM 44.138244 r_14 2000
 N1005AC2 LF1005S1 98 NOPTCLE0 1
 N1005AC2 CONTBOS2 1 CONTCLE2 -1
 N1005AC2 MSBOSCLE 1
 N1005AC3 R0000000 1.93119 ACOCOSTS 1.93119
 N1005AC3 FUELAVAL 2.27351 SYSTDEPT 1
 N1005AC3 ACMILES 0.56156 ATONMILE 22.4622
 N1005AC3 LFTNMILE 11.2311 r_15 3000
 N1005AC3 LF1005C1 30 NOPTCLE0 1
 N1005AC3 CONTBOS3 1 CONTCLE3 -1
 N1005AC4 R0000000 1.34618 ACOCOSTS 1.34618
 N1005AC4 FUELAVAL 1.41795 SYSTDEPT 1
 N1005AC4 ACMILES 0.56156 ATONMILE 8.42333
 N1005AC4 LFTNMILE 4.211665 r_16 1500
 N1005AC4 LF1005C1 11.25 NOPTCLE0 1
 N1005AC4 CONTBOS4 1 CONTCLE4 -1
 N1011AC1 R0000000 1.1 ACOCOSTS 1.1
 N1011AC1 FUELAVAL 9.91398 SYSTDEPT 2
 N1011AC1 ACMILES 0.87605 ASMILES 356.55371
 N1011AC1 LFRPMASM 213.932226 ATONMILE 26.2816
 N1011AC1 LFTNMILE 13.1408 r_13 25
 N1011AC1 LF1011S1 305 LF1011S2 305
 N1011AC1 LF1011B1 12 LF1011B2 12
 N1011AC1 NOPTCLE0 2 CONTBOS1 1
 N1011AC1 CONTORD1 -1 MSBOSORD 1
 N1011AC1 MSBOSCLE 1 MSCLEORD 1
 N1011AC2 R0000000 1.2 ACOCOSTS 1.2
 N1011AC2 FUELAVAL 3.07692 SYSTDEPT 2
 N1011AC2 ACMILES 0.87605 ASMILES 114.76299
 N1011AC2 LFRPMASM 68.857794 r_14 25
 N1011AC2 LF1011S1 98 LF1011S2 98
 N1011AC2 NOPTCLE0 2 CONTBOS2 1
 N1011AC2 CONTORD2 -1 MSBOSORD 1
 N1011AC2 MSBOSCLE 1 MSCLEORD 1
 N1011AC3 R0000000 1.3 ACOCOSTS 1.3
 N1011AC3 FUELAVAL 3.83055 SYSTDEPT 2
 N1011AC3 ACMILES 0.87605 ATONMILE 35.04214
 N1011AC3 LFTNMILE 17.52107 r_15 26
 N1011AC3 LF1011C1 30 LF1011C2 30
 N1011AC3 NOPTCLE0 2 CONTBOS3 1
 N1011AC3 CONTORD3 -1
 N1011AC4 R0000000 2.34647 ACOCOSTS 2.34647
 N1011AC4 FUELAVAL 2.3665 SYSTDEPT 2
 N1011AC4 ACMILES 0.87605 ATONMILE 13.1408
 N1011AC4 LFTNMILE 6.5704 r_16 27
 N1011AC4 LF1011C1 11.25 LF1011C2 11.25
 N1011AC4 NOPTCLE0 2 CONTBOS4 1
 N1011AC4 CONTORD4 -1
 N1013AC2 R0000000 2.36783 ACOCOSTS 2.36783
 N1013AC2 FUELAVAL 3.16965 SYSTDEPT 2
 N1013AC2 ACMILES 0.91637 ASMILES 120.04449
 N1013AC2 LFRPMASM 72.026694 r_14 2.65943
 N1013AC2 LF1013S1 98 LF1013S2 98
 N1013AC2 CONTBOS2 1 CONTORD2 -1
 N1013AC2 MSBOSORD 1 MSBOSLGA 1
 N1013AC2 MSLGAORD 1
 N1013AC4 R0000000 1.90292 ACOCOSTS 1.90292
 N1013AC4 FUELAVAL 2.4431 SYSTDEPT 2
 N1013AC4 ACMILES 0.91637 ATONMILE 13.74556
 N1013AC4 LFTNMILE 6.87278 r_16 2.65943
 N1013AC4 LF1013C1 11.25 LF1013C2 11.25
 N1013AC4 CONTBOS4 1 CONTORD4 -1
 N1013AC4 MCLGAORD 1
 N1015AC2 R0000000 1.36416 ACOCOSTS 1.36416
 N1015AC2 FUELAVAL 1.49045 SYSTDEPT 1
 N1015AC2 ACMILES 0.41715 ASMILES 54.64705
 N1015AC2 LFRPMASM 32.78823 r_14 1.25093
 N1015AC2 LF1015S1 98 NOPTCLE0 1
 N1015AC2 CONTLGA2 1 CONTCLE2 -1
 N1015AC2 MSLGACLE 1
 N1015AC4 R0000000 1.14401 ACOCOSTS 1.14401
 N1015AC4 FUELAVAL 1.14359 SYSTDEPT 1
 N1015AC4 ACMILES 0.41715 ATONMILE 6.25729
 N1015AC4 LFTNMILE 3.128645 r_16 1.25093
 N1015AC4 LF1015C1 11.25 NOPTCLE0 1
 N1015AC4 CONTLGA4 1 CONTCLE4 -1
 N1017AC2 R0000000 1.64736 ACOCOSTS 1.64736
 N1017AC2 FUELAVAL 2.21183 SYSTDEPT 1
 N1017AC2 ACMILES 0.7308 ASMILES 95.73444
 N1017AC2 LFRPMASM 57.440664 r_14 1.85313
 N1017AC2 LF1017S1 98 CONTORD2 -1
 N1017AC2 CONTLGA2 1 MSLGAORD 1
 N1017AC4 R0000000 1.33312 ACOCOSTS 1.33312
 N1017AC4 FUELAVAL 1.73951 SYSTDEPT 1
 N1017AC4 ACMILES 0.7308 ATONMILE 10.96196
 N1017AC4 LFTNMILE 5.48098 r_16 1.85313
 N1017AC4 LF1017C1 11.25 CONTORD4 -1
 N1017AC4 CONTLGA4 1 MCLGAORD 1
 N1019AC2 R0000000 2.55381 ACOCOSTS 2.55381
 N1019AC2 FUELAVAL 2.7448 SYSTDEPT 2
 N1019AC2 ACMILES 0.73165 ASMILES 95.8463
 N1019AC2 LFRPMASM 57.50778 r_14 2.30477
 N1019AC2 LF1019S1 98 LF1019S2 98
 N1019AC2 NOPTCLE0 2 CONTORD2 -1
 N1019AC2 CONTLGA2 1 MSLGAORD 1
 N1019AC2 MSLGACLE 1 MSCLEORD 1
 N1019AC4 R0000000 2.14431 ACOCOSTS 2.14431
 N1019AC4 FUELAVAL 2.09214 SYSTDEPT 2
 N1019AC4 ACMILES 0.73165 ATONMILE 10.97477
 N1019AC4 LFTNMILE 5.487385 r_16 2.30477
 N1019AC4 LF1019C1 11.25 LF1019C2 11.25
 N1019AC4 NOPTCLE0 2 CONTORD4 -1
 N1019AC4 CONTLGA4 1 MCLGAORD 1
 N1021AC1 R0000000 3.12679 ACOCOSTS 3.12679
 N1021AC1 FUELAVAL 4.07994 SYSTDEPT 1
 N1021AC1 ACMILES 0.3145 ASMILES 128.00075
 N1021AC1 LFRPMASM 76.80045 ATONMILE 9.43495
 N1021AC1 LFTNMILE 4.717475 r_13 1.34295
 N1021AC1 LF1021S1 305 LF1021B1 12
 N1021AC1 NOPTCLE0 1 CONTORD1 -1
 N1021AC1 CONTCLE1 1 MSCLEORD 1
 N1021AC2 R0000000 1.18965 ACOCOSTS 1.18965
 N1021AC2 FUELAVAL 1.25435 SYSTDEPT 1
 N1021AC2 ACMILES 0.3145 ASMILES 41.19926
 N1021AC2 LFRPMASM 24.719556 r_14 1.05384
 N1021AC2 LF1021S1 98 NOPTCLE0 1
 N1021AC2 CONTORD2 -1 CONTCLE2 1
 N1021AC2 MSCLEORD 1
 N1021AC3 R0000000 1.42472 ACOCOSTS 1.42472
 N1021AC3 FUELAVAL 1.55704 SYSTDEPT 1
 N1021AC3 ACMILES 0.3145 ATONMILE 12.57993
 N1021AC3 LFTNMILE 6.289965 r_15 1.05384
 N1021AC3 LF1021C1 30 NOPTCLE0 1
 N1021AC3 CONTORD3 -1 CONTCLE3 1
 N1021AC4 R0000000 1.0003 ACOCOSTS 1.0003
 N1021AC4 FUELAVAL 0.94855 SYSTDEPT 1
 N1021AC4 ACMILES 0.3145 ATONMILE 4.71747
 N1021AC4 LFTNMILE 2.358735 r_16 1.05384
 N1021AC4 LF1021C1 11.25 NOPTCLE0 1
 N1021AC4 CONTORD4 -1 CONTCLE4 1
 N1002AC1 R0000000 3.12679 ACOCOSTS 3.12679
 N1002AC1 FUELAVAL 4.07994 SYSTDEPT 1
 N1002AC1 ACMILES 0.3145 ASMILES 128.00075
 N1002AC1 LFRPMASM 76.80045 ATONMILE 9.43495
 N1002AC1 LFTNMILE 4.717475 r_13 1.34295
 N1002AC1 LF1002S1 305 LF1002B1 12
 N1002AC1 NOPTCLE0 1 CONTORD1 1
 N1002AC1 CONTCLE1 -1 MSORDCLE 1
 N1002AC2 R0000000 1.18965 ACOCOSTS 1.18965
 N1002AC2 FUELAVAL 1.25435 SYSTDEPT 1
 N1002AC2 ACMILES 0.3145 ASMILES 41.19926
 N1002AC2 LFRPMASM 24.719556 r_14 1.05384
 N1002AC2 LF1002S1 98 NOPTCLE0 1
 N1002AC2 CONTORD2 1 CONTCLE2 -1
 N1002AC2 MSORDCLE 1
 N1002AC3 R0000000 1.42472 ACOCOSTS 1.42472
 N1002AC3 FUELAVAL 1.55704 SYSTDEPT 1
 N1002AC3 ACMILES 0.3145 ATONMILE 12.57993
 N1002AC3 LFTNMILE 6.289965 r_15 1.05384
 N1002AC3 LF1002C1 30 NOPTCLE0 1
 N1002AC3 CONTORD3 1 CONTCLE3 -1
 N1002AC4 R0000000 1.0003 ACOCOSTS 1.0003
 N1002AC4 FUELAVAL 0.94855 SYSTDEPT 1
 N1002AC4 ACMILES 0.3145 ATONMILE 4.71747
 N1002AC4 LFTNMILE 2.358735 r_16 1.05384
 N1002AC4 LF1002C1 11.25 NOPTCLE0 1
 N1002AC4 CONTORD4 1 CONTCLE4 -1
 N1004AC2 R0000000 1.64736 ACOCOSTS 1.64736
 N1004AC2 FUELAVAL 2.21183 SYSTDEPT 1
 N1004AC2 ACMILES 0.7308 ASMILES 95.73444
 N1004AC2 LFRPMASM 57.440664 r_14 1.85313
 N1004AC2 LF1004S1 98 CONTORD2 1
 N1004AC2 CONTLGA2 -1 MSORDLGA 1
 N1004AC4 R0000000 1.33312 ACOCOSTS 1.33312
 N1004AC4 FUELAVAL 1.73951 SYSTDEPT 1
 N1004AC4 ACMILES 0.7308 ATONMILE 10.96196
 N1004AC4 LFTNMILE 5.48098 r_16 1.85313
 N1004AC4 LF1004C1 11.25 CONTORD4 1
 N1004AC4 CONTLGA4 -1
 N1006AC1 R0000000 7.17016 ACOCOSTS 7.17016
 N1006AC1 FUELAVAL 9.91398 SYSTDEPT 2
 N1006AC1 ACMILES 0.87605 ASMILES 356.55371
 N1006AC1 LFRPMASM 213.932226 ATONMILE 26.2816
 N1006AC1 LFTNMILE 13.1408 r_13 3.12813
 N1006AC1 LF1006S1 305 LF1006S2 305
 N1006AC1 LF1006B1 12 LF1006B2 12
 N1006AC1 NOPTCLE0 2 CONTBOS1 -1
 N1006AC1 CONTORD1 1 MSORDBOS 1
 N1006AC1 MSORDCLE 1 MSCLEBOS 1
 N1006AC2 R0000000 2.79929 ACOCOSTS 2.79929
 N1006AC2 FUELAVAL 3.07692 SYSTDEPT 2
 N1006AC2 ACMILES 0.87605 ASMILES 114.76299
 N1006AC2 LFRPMASM 68.857794 r_14 2.58202
 N1006AC2 LF1006S1 98 LF1006S2 98
 N1006AC2 NOPTCLE0 2 CONTBOS2 -1
 N1006AC2 CONTORD2 1 MSORDBOS 1
 N1006AC2 MSORDCLE 1 MSCLEBOS 1
 N1006AC3 R0000000 3.35591 ACOCOSTS 3.35591
 N1006AC3 FUELAVAL 3.83055 SYSTDEPT 2
 N1006AC3 ACMILES 0.87605 ATONMILE 35.04214
 N1006AC3 LFTNMILE 17.52107 r_15 2.58202
 N1006AC3 LF1006C1 30 LF1006C2 30
 N1006AC3 NOPTCLE0 2 CONTBOS3 -1
 N1006AC3 CONTORD3 1 MCORDBOS 1
 N1006AC4 R0000000 2.34647 ACOCOSTS 2.34647
 N1006AC4 FUELAVAL 2.3665 SYSTDEPT 2
 N1006AC4 ACMILES 0.87605 ATONMILE 13.1408
 N1006AC4 LFTNMILE 6.5704 r_16 2.58202
 N1006AC4 LF1006C1 11.25 LF1006C2 11.25
 N1006AC4 NOPTCLE0 2 CONTBOS4 -1
 N1006AC4 CONTORD4 1 MCORDBOS 1
 N1008AC2 R0000000 2.36783 ACOCOSTS 2.36783
 N1008AC2 FUELAVAL 3.16965 SYSTDEPT 2
 N1008AC2 ACMILES 0.91637 ASMILES 120.04449
 N1008AC2 LFRPMASM 72.026694 r_14 2.65943
 N1008AC2 LF1008S1 98 LF1008S2 98
 N1008AC2 CONTBOS2 -1 CONTORD2 1
 N1008AC2 MSORDBOS 1 MSORDLGA 1
 N1008AC2 MSLGABOS 1
 N1008AC4 R0000000 1.90292 ACOCOSTS 1.90292
 N1008AC4 FUELAVAL 2.4431 SYSTDEPT 2
 N1008AC4 ACMILES 0.91637 ATONMILE 13.74556
 N1008AC4 LFTNMILE 6.87278 r_16 2.65943
 N1008AC4 LF1008C1 11.25 LF1008C2 11.25
 N1008AC4 CONTBOS4 -1 CONTORD4 1
 N1008AC4 MCORDBOS 1
 N1010AC2 R0000000 3.27428 ACOCOSTS 3.27428
 N1010AC2 FUELAVAL 3.70262 SYSTDEPT 3
 N1010AC2 ACMILES 0.91722 ASMILES 120.15637
 N1010AC2 LFRPMASM 72.093822 r_14 3.11107
 N1010AC2 LF1010S1 98 LF1010S2 98
 N1010AC2 LF1010S3 98 NOPTCLE0 2
 N1010AC2 CONTBOS2 -1 CONTORD2 1
 N1010AC2 MSORDBOS 1 MSORDLGA 1
 N1010AC2 MSORDCLE 1 MSLGABOS 1
 N1010AC2 MSCLEBOS 1 MSCLELGA 1
 N1010AC4 R0000000 2.71411 ACOCOSTS 2.71411
 N1010AC4 FUELAVAL 2.79573 SYSTDEPT 3
 N1010AC4 ACMILES 0.91722 ATONMILE 13.75836
 N1010AC4 LFTNMILE 6.87918 r_16 3.11107
 N1010AC4 LF1010C1 11.25 LF1010C2 11.25
 N1010AC4 LF1010C3 11.25 NOPTCLE0 2
 N1010AC4 CONTBOS4 -1 CONTORD4 1
 N1010AC4 MCORDBOS 1
 N1012AC2 R0000000 1.36416 ACOCOSTS 1.36416
 N1012AC2 FUELAVAL 1.49045 SYSTDEPT 1
 N1012AC2 ACMILES 0.41715 ASMILES 54.64705
 N1012AC2 LFRPMASM 32.78823 r_14 1.25093
 N1012AC2 LF1012S1 98 NOPTCLE0 1
 N1012AC2 CONTLGA2 -1 CONTCLE2 1
 N1012AC2 MSCLELGA 1
 N1012AC4 R0000000 1.14401 ACOCOSTS 1.14401
 N1012AC4 FUELAVAL 1.14359 SYSTDEPT 1
 N1012AC4 ACMILES 0.41715 ATONMILE 6.25729
 N1012AC4 LFTNMILE 3.128645 r_16 1.25093
 N1012AC4 LF1012C1 11.25 NOPTCLE0 1
 N1012AC4 CONTLGA4 -1 CONTCLE4 1
 N1014AC2 R0000000 2.08463 ACOCOSTS 2.08463
 N1014AC2 FUELAVAL 2.44827 SYSTDEPT 2
 N1014AC2 ACMILES 0.60273 ASMILES 78.95706
 N1014AC2 LFRPMASM 47.374236 r_14 2.05723
 N1014AC2 LF1014S1 98 LF1014S2 98
 N1014AC2 NOPTCLE0 1 CONTBOS2 -1
 N1014AC2 CONTCLE2 1 MSLGABOS 1
 N1014AC2 MSCLEBOS 1 MSCLELGA 1
 N1014AC4 R0000000 1.71382 ACOCOSTS 1.71382
 N1014AC4 FUELAVAL 1.84718 SYSTDEPT 2
 N1014AC4 ACMILES 0.60273 ATONMILE 9.04089
 N1014AC4 LFTNMILE 4.520445 r_16 2.05723
 N1014AC4 LF1014C1 11.25 LF1014C2 11.25
 N1014AC4 NOPTCLE0 1 CONTBOS4 -1
 N1014AC4 CONTCLE4 1
 N1100AC2 R0000000 6.07357 ACOCOSTS 6.07357
 N1100AC2 FUELAVAL 6.77953 SYSTDEPT 5
 N1100AC2 ACMILES 1.79328 ASMILES 234.91937
 N1100AC2 LFRPMASM 140.951622 r_14 5.69309
 N1100AC2 LF1100S1 98 LF1100S2 98
 N1100AC2 LF1100S3 98 LF1100S4 98
 N1100AC2 LF1100S5 98 NOPTCLE0 4
 N1100AC2 MSBOSORD 1 MSBOSLGA 1
 N1100AC2 MSBOSCLE 1 MSORDBOS 1
 N1100AC2 MSORDCLE 1 MSLGABOS 1
 N1100AC2 MSLGAORD 1 MSLGACLE 1
 N1100AC2 MSCLEBOS 1 MSCLEORD 1
 N1100AC4 R0000000 5.06059 ACOCOSTS 5.06059
 N1100AC4 FUELAVAL 5.16223 SYSTDEPT 5
 N1100AC4 ACMILES 1.79328 ATONMILE 26.89915
 N1100AC4 LFTNMILE 13.449575 r_16 5.69309
 N1100AC4 LF1100C1 11.25 LF1100C2 11.25
 N1100AC4 LF1100C3 11.25 LF1100C4 11.25
 N1100AC4 LF1100C5 11.25 NOPTCLE0 4
 N1100AC4 MCORDBOS 1 MCLGAORD 1
 N1102AC2 R0000000 5.16712 ACOCOSTS 5.16712
 N1102AC2 FUELAVAL 6.24657 SYSTDEPT 4
 N1102AC2 ACMILES 1.79242 ASMILES 234.80756
 N1102AC2 LFRPMASM 140.884536 r_14 5.24145
 N1102AC2 LF1102S1 98 LF1102S2 98
 N1102AC2 LF1102S3 98 LF1102S4 98
 N1102AC2 NOPTCLE0 2 MSBOSORD 1
 N1102AC2 MSBOSLGA 1 MSBOSCLE 1
 N1102AC2 MSORDBOS 1 MSORDLGA 1
 N1102AC2 MSLGABOS 1 MSCLEBOS 1
 N1102AC2 MSCLEORD 1 MSCLELGA 1
 N1102AC4 R0000000 4.24939 ACOCOSTS 4.24939
 N1102AC4 FUELAVAL 4.8096 SYSTDEPT 4
 N1102AC4 ACMILES 1.79242 ATONMILE 26.88635
 N1102AC4 LFTNMILE 13.443175 r_16 5.24145
 N1102AC4 LF1102C1 11.25 LF1102C2 11.25
 N1102AC4 LF1102C3 11.25 LF1102C4 11.25
 N1102AC4 NOPTCLE0 2 MCORDBOS 1
 N1200AC2 R0000000 0.72047 ACOCOSTS 0.72047
 N1200AC2 FUELAVAL 0.95782 SYSTDEPT 1
 N1200AC2 ACMILES 0.18557 ASMILES 24.31007
 N1200AC2 LFRPMASM 14.586042 r_14 0.8063
 N1200AC2 LF1200S1 98 CONTBOS2 1
 N1200AC2 CONTLGA2 -1 MSBOSLGA 1
 N1200AC4 R0000000 0.5698 ACOCOSTS 0.5698
 N1200AC4 FUELAVAL 0.70359 SYSTDEPT 1
 N1200AC4 ACMILES 0.18557 ATONMILE 2.7836
 N1200AC4 LFTNMILE 1.3918 r_16 0.8063
 N1200AC4 LF1200C1 11.25 CONTBOS4 1
 N1200AC4 CONTLGA4 -1
 N1201AC2 R0000000 0.72047 ACOCOSTS 0.72047
 N1201AC2 FUELAVAL 0.95782 SYSTDEPT 1
 N1201AC2 ACMILES 0.18557 ASMILES 24.31007
 N1201AC2 LFRPMASM 14.586042 r_14 0.8063
 N1201AC2 LF1201S1 98 CONTBOS2 -1
 N1201AC2 CONTLGA2 1 MSLGABOS 1
 N1201AC4 R0000000 0.5698 ACOCOSTS 0.5698
 N1201AC4 FUELAVAL 0.70359 SYSTDEPT 1
 N1201AC4 ACMILES 0.18557 ATONMILE 2.7836
 N1201AC4 LFTNMILE 1.3918 r_16 0.8063
 N1201AC4 LF1201C1 11.25 CONTBOS4 -1
 N1201AC4 CONTLGA4 1
 ~r_134 DMBOSORD -1
 ~r_135 DMBOSLGA -1
 ~r_136 DMBOSCLE -1
 ~r_137 DMORDBOS -1
 ~r_138 DMORDLGA -1
 ~r_139 DMORDCLE -1
 ~r_140 DMLGABOS -1
 ~r_141 DMLGAORD -1
 ~r_142 DMLGACLE -1
 ~r_143 DMCLEBOS -1
 ~r_144 DMCLEORD -1
 ~r_145 DMCLELGA -1
 ~r_158 DCBOSORD -1
 ~r_159 DCBOSCLE -1
 ~r_160 DCORDBOS -1
 ~r_161 DCORDLGA -1
 ~r_162 DCLGAORD -1
 ~r_163 DCLGACLE -1
 ~r_164 DCCLELGA -1
RHS
 RHS1 FUELAVAL 100000 SYSTDEPT 50
 RHS1 PASSNGRS 9431 r_13 30
 RHS1 r_14 45 NOPTCLE0 24
 RHS1 DMBOSORD 241 DMBOSLGA 1881
 RHS1 DMBOSCLE 113 DMORDBOS 241
 RHS1 DMORDLGA 412 DMORDCLE 495
 RHS1 DMLGABOS 2194 DMLGAORD 569
 RHS1 DMLGACLE 413 DMCLEBOS 104
 RHS1 DMCLEORD 569 DMCLELGA 327
 RHS1 MSBOSORD 3 MSBOSLGA 7
 RHS1 MSBOSCLE 1 MSORDBOS 3
 RHS1 MSORDLGA 4 MSORDCLE 5
 RHS1 MSLGABOS 7 MSLGAORD 5
 RHS1 MSLGACLE 4 MSCLEBOS 1
 RHS1 MSCLEORD 6 MSCLELGA 3
 RHS1 DCBOSCLE 12.8 DCORDBOS 19.2
 RHS1 DCORDLGA 10.4 DCLGAORD 36
 RHS1 DCLGACLE 12.8 MCORDBOS 1
 RHS1 MCLGAORD 2
BOUNDS
 LO BND1 GRDTIMN1 -100
 UP BND1 GRDTIMN1 0
 LO BND1 GRDTIMN2 -90
 UP BND1 GRDTIMN2 0
 LO BND1 GRDTIMN3 -45
 UP BND1 GRDTIMN3 0
 LO BND1 GRDTIMN4 -45
 UP BND1 GRDTIMN4 0
 UP BND1 N1003AC1 7
 UP BND1 N1003AC2 7
 UP BND1 N1003AC3 2
 UP BND1 N1003AC4 2
 UP BND1 N1005AC1 7
 UP BND1 N1005AC2 7
 UP BND1 N1005AC3 2
 UP BND1 N1005AC4 2
 UP BND1 N1011AC1 7
 UP BND1 N1011AC2 7
 UP BND1 N1011AC3 2
 UP BND1 N1011AC4 2
 UP BND1 N1013AC2 14
 UP BND1 N1013AC4 2
 UP BND1 N1015AC2 7
 UP BND1 N1015AC4 2
 UP BND1 N1017AC2 7
 UP BND1 N1017AC4 2
 UP BND1 N1019AC2 7
 UP BND1 N1019AC4 2
 UP BND1 N1021AC1 7
 UP BND1 N1021AC2 7
 UP BND1 N1021AC3 2
 UP BND1 N1021AC4 2
 UP BND1 N1002AC1 7
 UP BND1 N1002AC2 7
 UP BND1 N1002AC3 2
 UP BND1 N1002AC4 2
 UP BND1 N1004AC2 7
 UP BND1 N1004AC4 2
 UP BND1 N1006AC1 7
 UP BND1 N1006AC2 7
 UP BND1 N1006AC3 2
 UP BND1 N1006AC4 2
 UP BND1 N1008AC2 14
 UP BND1 N1008AC4 2
 UP BND1 N1010AC2 14
 UP BND1 N1010AC4 2
 UP BND1 N1012AC2 7
 UP BND1 N1012AC4 2
 UP BND1 N1014AC2 14
 UP BND1 N1014AC4 2
 UP BND1 N1100AC2 7
 UP BND1 N1100AC4 7
 UP BND1 N1102AC2 7
 UP BND1 N1102AC4 7
 UP BND1 N1200AC2 14
 UP BND1 N1200AC4 7
 UP BND1 N1201AC2 14
 UP BND1 N1201AC4 7
 UP BND1 ~r_134 61
 UP BND1 ~r_135 471
 UP BND1 ~r_136 29
 UP BND1 ~r_137 61
 UP BND1 ~r_138 103
 UP BND1 ~r_139 124
 UP BND1 ~r_140 549
 UP BND1 ~r_141 143
 UP BND1 ~r_142 104
 UP BND1 ~r_143 27
 UP BND1 ~r_144 143
 UP BND1 ~r_145 82
 UP BND1 ~r_158 12
 UP BND1 ~r_159 3.2
 UP BND1 ~r_160 4.8
 UP BND1 ~r_161 2.6
 UP BND1 ~r_162 9
 UP BND1 ~r_163 3.2
 UP BND1 ~r_164 5
ENDATA
